250,323
120,129
289,191
368,80
240,348
222,339
94,168
38,188
269,8
334,288
37,333
311,384
153,391
190,137
349,202
358,18
336,221
115,391
235,391
175,234
167,228
232,227
20,100
359,112
141,8
190,335
90,264
349,83
172,280
235,222
206,118
231,17
97,108
108,310
145,387
32,265
258,230
191,199
259,127
4,82
99,63
279,283
356,342
7,207
211,150
358,129
79,251
41,337
159,341
89,121
